p cnf 38 32
-2 -100
-8 -66
-18 -94
-28 -148
-28 -158
-32 -80
-32 -190
-36 -62
-38 -62
-48 -94
-48 -112
-54 -112
-56 -94
-60 -110
-62 -138
-62 -156
-62 -180
-62 -184
-68 -86
-68 -192
-72 -92
-72 -146
-84 -156
-92 -138
-92 -184
-102 -152
-108 -110
-112 -156
-112 -164
-132 -188
-138 -184
-158 -164

